s td 129 12 152
b 1 27 30 32
b 2 28 29 31
b 3 29 31 133
b 4 30 32 134
b 5 31 83 133
b 6 32 84 134
b 7 33 36 38
b 8 34 35 37
b 9 35 37 93
b 10 36 38 94
b 11 37 93 141
b 12 38 94 142
b 13 111 114 116
b 14 112 113 115
b 15 113 115 131
b 16 114 116 132
b 17 9 115 131
b 18 10 116 132
b 19 147 150 152
b 20 148 149 151
b 21 143 149 151
b 22 144 150 152
b 23 121 143 151
b 24 122 144 152
b 25 1 7 8 9 10 20 25 67 79 80
b 26 3 7 8 9 10 25
b 27 2 3 7 10 25
b 28 2 3 5 25
b 29 1 7 9 10 20 25 26 67 79 80
b 30 1 6 7 9 26
b 31 4 6 7 9
b 32 9 10 20 25 26 67 79 80 81 82 133 134
b 33 9 10 20 25 26 67 81 82 132 133 134
b 34 9 20 25 26 67 81 82 131 132 133 134
b 35 20 22 25 26 67 81 82 131 132 133 134
b 36 20 21 22 25 26 67 81 131 132 133 134
b 37 19 20 21 22 25 26 67 131 132 133 134
b 38 19 20 21 22 24 25 26 131 132 133 134
b 39 11 20 22 24 26
b 40 12 19 21 24 26
b 41 15 19 22 24 25
b 42 16 20 21 24 25
b 43 24 127 131 132 133 134
b 44 24 127 128 131 133
b 45 24 127 128 136
b 46 19 20 21 22 25 26 129 131 132 133 134
b 47 19 20 21 22 23 25 26 129 132 133
b 48 13 19 22 23 26
b 49 14 20 21 23 26
b 50 17 20 22 23 25
b 51 18 19 21 23 25
b 52 23 129 132 133 135
b 53 130 132 133 135
b 54 79 80 81 82 84 134
b 55 75 80 82 84
b 56 76 79 81 84
b 57 78 79 80 81 82 133
b 58 78 79 82 83 133
b 59 77 79 82 83
b 60 7 8 20 53 54 67 71 79 80 110 125 126
b 61 20 53 54 67 71 74 79 80 110 125 126
b 62 20 53 67 71 73 74 79 80 110 125 126
b 63 20 67 71 72 73 74 79 80 110 125 126
b 64 20 67 68 71 72 73 74 79 80 125 126
b 65 46 67 68 71 72 73 74 79 80 125 126
b 66 45 46 67 68 71 72 73 74 79 125 126
b 67 44 45 46 67 68 71 72 73 74 125 126
b 68 43 44 45 46 67 68 71 72 73 74 125
b 69 43 44 45 46 67 68 70 71 72 73 74
b 70 43 44 45 46 48 70
b 71 39 44 46 48
b 72 40 43 45 48
b 73 59 68 70 72 74
b 74 61 67 70 71 74
b 75 63 67 70 72 73
b 76 65 68 70 71 73
b 77 43 44 45 46 67 68 69 71 72 73 74
b 78 43 44 45 46 47 69
b 79 41 43 46 47
b 80 42 44 45 47
b 81 60 67 69 72 74
b 82 62 68 69 71 74
b 83 64 68 69 72 73
b 84 66 67 69 71 73
b 85 7 8 53 54 71 91 108 110 125 126 141 142
b 86 7 8 53 54 91 94 108 141 142
b 87 7 8 53 54 91 93 94 108 141
b 88 7 8 53 54 91 92 93 94 108
b 89 7 8 53 54 56 91 92 93 94
b 90 7 53 54 55 56 91 92 93 94
b 91 53 54 55 56 88 91 92 93 94
b 92 53 54 55 56 85 88 92 94
b 93 50 53 54 55 56 85 88
b 94 50 54 56 85 88 90
b 95 50 54 56 58 90
b 96 49 54 56 58
b 97 53 54 55 56 57 91 92 93 94
b 98 51 53 56 57
b 99 52 54 55 57
b 100 57 86 91 92 93 94
b 101 57 86 87 92 93
b 102 57 86 87 89
b 103 71 91 103 104 108 110 121 122 125 126 141 142
b 104 71 91 103 104 108 110 121 122 141 142 144
b 105 71 91 103 104 108 110 121 141 142 143 144
b 106 71 91 103 104 108 109 110 141 142 143 144
b 107 91 103 104 107 108 109 110 141 142 143 144
b 108 103 104 106 107 108 109 110 141 142 143 144
b 109 95 104 106 108 110
b 110 97 103 106 107 110
b 111 99 103 106 108 109
b 112 101 104 106 107 109
b 113 106 138 141 142 143 144
b 114 106 137 138 142 144
b 115 106 137 138 146
b 116 103 104 107 108 109 110 141 142 143 144 145
b 117 103 104 105 107 108 109 110 145
b 118 96 103 105 108 110
b 119 98 104 105 107 110
b 120 100 104 105 108 109
b 121 102 103 105 107 109
b 122 139 141 144 145
b 123 140 142 143 145
b 124 104 119 121 122 125 126
b 125 104 117 119 122 126
b 126 104 117 119 124
b 127 103 118 121 122 125 126
b 128 103 118 122 123 125
b 129 120 122 123 125
1 4
2 3
3 5
4 6
5 58
6 54
7 10
8 9
9 11
10 12
11 87
12 86
13 16
14 15
15 17
16 18
17 34
18 33
19 22
20 21
21 23
22 24
23 105
24 104
25 26
25 29
25 60
26 27
27 28
29 30
29 32
30 31
32 33
32 54
32 57
33 34
34 35
35 36
36 37
37 38
37 46
38 39
38 40
38 41
38 42
38 43
43 44
44 45
46 47
47 48
47 49
47 50
47 51
47 52
52 53
54 55
54 56
57 58
58 59
60 61
60 85
61 62
62 63
63 64
64 65
65 66
66 67
67 68
68 69
68 77
69 70
69 73
69 74
69 75
69 76
70 71
70 72
77 78
77 81
77 82
77 83
77 84
78 79
78 80
85 86
85 103
86 87
87 88
88 89
89 90
90 91
90 97
91 92
92 93
93 94
94 95
95 96
97 98
97 99
97 100
100 101
101 102
103 104
103 124
103 127
104 105
105 106
106 107
107 108
107 116
108 109
108 110
108 111
108 112
108 113
113 114
114 115
116 117
116 122
116 123
117 118
117 119
117 120
117 121
124 125
125 126
127 128
128 129
